outputs/case_161.model.txt
related_person_trading_stock_or_equity_derivative = False
exemption_by_authority = False
fund_holding_stock_or_equity_derivative = True
trading_reported_to_fund = False
duty_of_care_and_loyalty_met = True
prohibited_related_party_trading = True
other_harmful_acts_to_investors_or_fund = False
improper_public_recommendations = False
selling_proxy_votes_for_benefits = False
no_prohibited_behaviors = True
failure_to_return_commission_to_fund = False
fraud_or_misleading_behavior = False
related_person_definition_ok = True
related_person_definition_according_to_authority = True
unauthorized_agent_trading = False
unreasonable_commissions_to_nonprofessionals = False
improper_account_transfers = False
insider_trading_or_leakage = False
self_dealing_or_conflict_of_interest = False
penalty = False
manipulating_market_prices = False
providing_undue_benefits_for_promotion = False
related_party_trading_reported = True
duty_of_care_and_loyalty_executed = True